rcpsp/heur_output_bi_constraints/Log=1/heurj90.txt
encoding rcpsp/j90.sm/j906_10.sm nv: 1741428 nc: 3642885 enctime: 28.79
encoding rcpsp/j90.sm/j906_10.sm nv: 256932 nc: 534429 enctime: 3.24
c File: j906_10.smnaivebi1.wcnf
c timeout
c CPU time: 63.606227
s UNKNOWN

c File: j906_10.smbi1.wcnf
c timeout
c CPU time: 60.336624
s UNKNOWN


rcpsp/heur_output_bi_constraints/Log=1/heurj90.txt
encoding rcpsp/j90.sm/j906_1.sm nv: 1408808 nc: 2910125 enctime: 22.28
encoding rcpsp/j90.sm/j906_1.sm nv: 249156 nc: 512405 enctime: 3.06
c File: j906_1.smnaivebi1.wcnf
c optimal
c final solution cost: 51
c CPU time: 4.892871
s OPTIMUM FOUND

c File: j906_1.smbi1.wcnf
c optimal
c final solution cost: 51
c CPU time: 0.704973
s OPTIMUM FOUND


rcpsp/heur_output_bi_constraints/Log=1/heurj90.txt
encoding rcpsp/j90.sm/j906_2.sm nv: 1550172 nc: 3216357 enctime: 24.50
encoding rcpsp/j90.sm/j906_2.sm nv: 254178 nc: 524836 enctime: 3.14
c File: j906_2.smnaivebi1.wcnf
c timeout
c final solution cost: 51
c CPU time: 63.405567
s UNKNOWN

c File: j906_2.smbi1.wcnf
c timeout
c final solution cost: 51
c CPU time: 60.383164
s UNKNOWN


rcpsp/heur_output_bi_constraints/Log=1/heurj90.txt
encoding rcpsp/j90.sm/j906_3.sm nv: 1438976 nc: 3009098 enctime: 24.17
encoding rcpsp/j90.sm/j906_3.sm nv: 230912 nc: 480143 enctime: 2.94
c File: j906_3.smnaivebi1.wcnf
c timeout
c final solution cost: 101
c CPU time: 63.452464
s UNKNOWN

c File: j906_3.smbi1.wcnf
c timeout
c final solution cost: 61
c CPU time: 60.352910
s UNKNOWN


rcpsp/heur_output_bi_constraints/Log=1/heurj90.txt
encoding rcpsp/j90.sm/j906_4.sm nv: 1674092 nc: 3448476 enctime: 26.55
encoding rcpsp/j90.sm/j906_4.sm nv: 246190 nc: 504570 enctime: 3.12
c File: j906_4.smnaivebi1.wcnf
c optimal
c final solution cost: 60
c CPU time: 5.598980
s OPTIMUM FOUND

c File: j906_4.smbi1.wcnf
c optimal
c final solution cost: 60
c CPU time: 0.680112
s OPTIMUM FOUND


rcpsp/heur_output_bi_constraints/Log=1/heurj90.txt
encoding rcpsp/j90.sm/j906_5.sm nv: 1545403 nc: 3209876 enctime: 25.06
encoding rcpsp/j90.sm/j906_5.sm nv: 219887 nc: 453984 enctime: 2.14
c File: j906_5.smnaivebi1.wcnf
c timeout
c final solution cost: 53
c CPU time: 63.534063
s UNKNOWN

c File: j906_5.smbi1.wcnf
c timeout
c final solution cost: 53
c CPU time: 60.333247
s UNKNOWN


rcpsp/heur_output_bi_constraints/Log=1/heurj90.txt
encoding rcpsp/j90.sm/j906_6.sm nv: 1556856 nc: 3239983 enctime: 25.24
encoding rcpsp/j90.sm/j906_6.sm nv: 265654 nc: 550153 enctime: 3.35
c File: j906_6.smnaivebi1.wcnf
c optimal
c final solution cost: 56
c CPU time: 5.689281
s OPTIMUM FOUND

c File: j906_6.smbi1.wcnf
c optimal
c final solution cost: 56
c CPU time: 0.829442
s OPTIMUM FOUND


rcpsp/heur_output_bi_constraints/Log=1/heurj90.txt
encoding rcpsp/j90.sm/j906_7.sm nv: 1787916 nc: 3667519 enctime: 27.91
encoding rcpsp/j90.sm/j906_7.sm nv: 254332 nc: 519147 enctime: 3.23
c File: j906_7.smnaivebi1.wcnf
c timeout
c final solution cost: 53
c CPU time: 63.626639
s UNKNOWN

c File: j906_7.smbi1.wcnf
c timeout
c final solution cost: 53
c CPU time: 60.371349
s UNKNOWN


rcpsp/heur_output_bi_constraints/Log=1/heurj90.txt
encoding rcpsp/j90.sm/j906_8.sm nv: 1690040 nc: 3502660 enctime: 27.74
encoding rcpsp/j90.sm/j906_8.sm nv: 237140 nc: 488545 enctime: 2.35
c File: j906_8.smnaivebi1.wcnf
c timeout
c final solution cost: 57
c CPU time: 63.672077
s UNKNOWN

c File: j906_8.smbi1.wcnf
c timeout
c final solution cost: 57
c CPU time: 60.355634
s UNKNOWN


rcpsp/heur_output_bi_constraints/Log=1/heurj90.txt
encoding rcpsp/j90.sm/j906_9.sm nv: 1699360 nc: 3510676 enctime: 27.32
encoding rcpsp/j90.sm/j906_9.sm nv: 227040 nc: 466312 enctime: 2.97
c File: j906_9.smnaivebi1.wcnf
c timeout
c final solution cost: 41
c CPU time: 63.650474
s UNKNOWN

c File: j906_9.smbi1.wcnf
c timeout
c final solution cost: 41
c CPU time: 60.344090
s UNKNOWN


rcpsp/heur_output_bi_constraints/Log=1/heurj90.txt
encoding rcpsp/j90.sm/j907_10.sm nv: 2051472 nc: 4239941 enctime: 33.06
encoding rcpsp/j90.sm/j907_10.sm nv: 276816 nc: 568949 enctime: 3.57
c File: j907_10.smnaivebi1.wcnf
c optimal
c final solution cost: 53
c CPU time: 17.379166
s OPTIMUM FOUND

c File: j907_10.smbi1.wcnf
c optimal
c final solution cost: 53
c CPU time: 3.062271
s OPTIMUM FOUND


rcpsp/heur_output_bi_constraints/Log=1/heurj90.txt
encoding rcpsp/j90.sm/j907_1.sm nv: 2185475 nc: 4446446 enctime: 33.14
encoding rcpsp/j90.sm/j907_1.sm nv: 289863 nc: 587242 enctime: 2.85
c File: j907_1.smnaivebi1.wcnf
c optimal
c final solution cost: 51
c CPU time: 6.656131
s OPTIMUM FOUND

c File: j907_1.smbi1.wcnf
c optimal
c final solution cost: 51
c CPU time: 0.724289
s OPTIMUM FOUND


rcpsp/heur_output_bi_constraints/Log=1/heurj90.txt
encoding rcpsp/j90.sm/j907_2.sm nv: 2013235 nc: 4109284 enctime: 30.73
encoding rcpsp/j90.sm/j907_2.sm nv: 211701 nc: 429398 enctime: 2.85
c File: j907_2.smnaivebi1.wcnf
c optimal
c final solution cost: 37
c CPU time: 6.538750
s OPTIMUM FOUND

c File: j907_2.smbi1.wcnf
c optimal
c final solution cost: 37
c CPU time: 0.615179
s OPTIMUM FOUND


rcpsp/heur_output_bi_constraints/Log=1/heurj90.txt
encoding rcpsp/j90.sm/j907_3.sm nv: 2005481 nc: 4114662 enctime: 31.11
encoding rcpsp/j90.sm/j907_3.sm nv: 321520 nc: 657074 enctime: 3.94
c File: j907_3.smnaivebi1.wcnf
c timeout
c final solution cost: 54
c CPU time: 64.031743
s UNKNOWN

c File: j907_3.smbi1.wcnf
c timeout
c final solution cost: 53
c CPU time: 60.484220
s UNKNOWN


rcpsp/heur_output_bi_constraints/Log=1/heurj90.txt
encoding rcpsp/j90.sm/j907_4.sm nv: 1639891 nc: 3376142 enctime: 25.83
encoding rcpsp/j90.sm/j907_4.sm nv: 197619 nc: 404238 enctime: 1.94
c File: j907_4.smnaivebi1.wcnf
c timeout
c final solution cost: 48
c CPU time: 63.378841
s UNKNOWN

c File: j907_4.smbi1.wcnf
c timeout
c final solution cost: 48
c CPU time: 60.287099
s UNKNOWN


rcpsp/heur_output_bi_constraints/Log=1/heurj90.txt
encoding rcpsp/j90.sm/j907_5.sm nv: 1727928 nc: 3541135 enctime: 27.09
encoding rcpsp/j90.sm/j907_5.sm nv: 270684 nc: 552370 enctime: 3.44
c File: j907_5.smnaivebi1.wcnf
c optimal
c final solution cost: 52
c CPU time: 5.639807
s OPTIMUM FOUND

c File: j907_5.smbi1.wcnf
c optimal
c final solution cost: 52
c CPU time: 0.825455
s OPTIMUM FOUND


rcpsp/heur_output_bi_constraints/Log=1/heurj90.txt
encoding rcpsp/j90.sm/j907_6.sm nv: 1665962 nc: 3429950 enctime: 26.40
encoding rcpsp/j90.sm/j907_6.sm nv: 222592 nc: 455645 enctime: 2.88
c File: j907_6.smnaivebi1.wcnf
c optimal
c final solution cost: 46
c CPU time: 5.117134
s OPTIMUM FOUND

c File: j907_6.smbi1.wcnf
c optimal
c final solution cost: 46
c CPU time: 1.814104
s OPTIMUM FOUND


rcpsp/heur_output_bi_constraints/Log=1/heurj90.txt
encoding rcpsp/j90.sm/j907_7.sm nv: 2047536 nc: 4174228 enctime: 31.03
encoding rcpsp/j90.sm/j907_7.sm nv: 277632 nc: 563428 enctime: 3.55
c File: j907_7.smnaivebi1.wcnf
c optimal
c final solution cost: 50
c CPU time: 6.441537
s OPTIMUM FOUND

c File: j907_7.smbi1.wcnf
c optimal
c final solution cost: 50
c CPU time: 0.744460
s OPTIMUM FOUND


rcpsp/heur_output_bi_constraints/Log=1/heurj90.txt
encoding rcpsp/j90.sm/j907_8.sm nv: 2192055 nc: 4447629 enctime: 33.23
encoding rcpsp/j90.sm/j907_8.sm nv: 247260 nc: 499143 enctime: 2.42
c File: j907_8.smnaivebi1.wcnf
c optimal
c final solution cost: 38
c CPU time: 6.796759
s OPTIMUM FOUND

c File: j907_8.smbi1.wcnf
c optimal
c final solution cost: 38
c CPU time: 0.754807
s OPTIMUM FOUND


rcpsp/heur_output_bi_constraints/Log=1/heurj90.txt
encoding rcpsp/j90.sm/j907_9.sm nv: 1627749 nc: 3378736 enctime: 26.84
encoding rcpsp/j90.sm/j907_9.sm nv: 244321 nc: 504188 enctime: 3.18
c File: j907_9.smnaivebi1.wcnf
c timeout
c CPU time: 63.324860
s UNKNOWN

c File: j907_9.smbi1.wcnf
c timeout
c CPU time: 60.315898
s UNKNOWN


rcpsp/heur_output_bi_constraints/Log=1/heurj90.txt
encoding rcpsp/j90.sm/j908_10.sm nv: 2053473 nc: 4177156 enctime: 31.21
encoding rcpsp/j90.sm/j908_10.sm nv: 240072 nc: 485635 enctime: 3.13
c File: j908_10.smnaivebi1.wcnf
c optimal
c final solution cost: 51
c CPU time: 6.218920
s OPTIMUM FOUND

c File: j908_10.smbi1.wcnf
c optimal
c final solution cost: 51
c CPU time: 0.613613
s OPTIMUM FOUND


rcpsp/heur_output_bi_constraints/Log=1/heurj90.txt
encoding rcpsp/j90.sm/j908_1.sm nv: 2484713 nc: 5079564 enctime: 38.10
encoding rcpsp/j90.sm/j908_1.sm nv: 380457 nc: 774732 enctime: 4.73
c File: j908_1.smnaivebi1.wcnf
c optimal
c final solution cost: 48
c CPU time: 7.761807
s OPTIMUM FOUND

c File: j908_1.smbi1.wcnf
c optimal
c final solution cost: 48
c CPU time: 0.860408
s OPTIMUM FOUND


rcpsp/heur_output_bi_constraints/Log=1/heurj90.txt
encoding rcpsp/j90.sm/j908_2.sm nv: 1784102 nc: 3618204 enctime: 26.35
encoding rcpsp/j90.sm/j908_2.sm nv: 221416 nc: 446957 enctime: 2.18
c File: j908_2.smnaivebi1.wcnf
c timeout
c final solution cost: 242
c CPU time: 63.408750
s UNKNOWN

c File: j908_2.smbi1.wcnf
c optimal
c final solution cost: 36
c CPU time: 1.931877
s OPTIMUM FOUND


rcpsp/heur_output_bi_constraints/Log=1/heurj90.txt
encoding rcpsp/j90.sm/j908_3.sm nv: 2453993 nc: 4968732 enctime: 36.99
encoding rcpsp/j90.sm/j908_3.sm nv: 226755 nc: 456354 enctime: 2.22
c File: j908_3.smnaivebi1.wcnf
c optimal
c final solution cost: 34
c CPU time: 8.871517
s OPTIMUM FOUND

c File: j908_3.smbi1.wcnf
c optimal
c final solution cost: 34
c CPU time: 0.564955
s OPTIMUM FOUND


rcpsp/heur_output_bi_constraints/Log=1/heurj90.txt
encoding rcpsp/j90.sm/j908_4.sm nv: 2587200 nc: 5290368 enctime: 40.34
encoding rcpsp/j90.sm/j908_4.sm nv: 331200 nc: 674028 enctime: 4.33
c File: j908_4.smnaivebi1.wcnf
c optimal
c final solution cost: 47
c CPU time: 7.256696
s OPTIMUM FOUND

c File: j908_4.smbi1.wcnf
c optimal
c final solution cost: 47
c CPU time: 0.838125
s OPTIMUM FOUND


rcpsp/heur_output_bi_constraints/Log=1/heurj90.txt
encoding rcpsp/j90.sm/j908_5.sm nv: 2696265 nc: 5446880 enctime: 40.03
encoding rcpsp/j90.sm/j908_5.sm nv: 266903 nc: 536420 enctime: 3.60
c File: j908_5.smnaivebi1.wcnf
c optimal
c final solution cost: 47
c CPU time: 8.065001
s OPTIMUM FOUND

c File: j908_5.smbi1.wcnf
c optimal
c final solution cost: 47
c CPU time: 0.722926
s OPTIMUM FOUND


rcpsp/heur_output_bi_constraints/Log=1/heurj90.txt
encoding rcpsp/j90.sm/j908_6.sm nv: 2814870 nc: 5690086 enctime: 42.33
encoding rcpsp/j90.sm/j908_6.sm nv: 317718 nc: 639334 enctime: 4.24
c File: j908_6.smnaivebi1.wcnf
c optimal
c final solution cost: 44
c CPU time: 8.071931
s OPTIMUM FOUND

c File: j908_6.smbi1.wcnf
c optimal
c final solution cost: 44
c CPU time: 0.791909
s OPTIMUM FOUND


rcpsp/heur_output_bi_constraints/Log=1/heurj90.txt
encoding rcpsp/j90.sm/j908_7.sm nv: 2418930 nc: 4923925 enctime: 37.45
encoding rcpsp/j90.sm/j908_7.sm nv: 241893 nc: 489526 enctime: 3.38
c File: j908_7.smnaivebi1.wcnf
c optimal
c final solution cost: 34
c CPU time: 8.678334
s OPTIMUM FOUND

c File: j908_7.smbi1.wcnf
c optimal
c final solution cost: 34
c CPU time: 1.246147
s OPTIMUM FOUND


rcpsp/heur_output_bi_constraints/Log=1/heurj90.txt
encoding rcpsp/j90.sm/j908_8.sm nv: 2798148 nc: 5657736 enctime: 42.69
encoding rcpsp/j90.sm/j908_8.sm nv: 289848 nc: 583086 enctime: 4.02
c File: j908_8.smnaivebi1.wcnf
c optimal
c final solution cost: 40
c CPU time: 9.001526
s OPTIMUM FOUND

c File: j908_8.smbi1.wcnf
c optimal
c final solution cost: 40
c CPU time: 0.753208
s OPTIMUM FOUND


rcpsp/heur_output_bi_constraints/Log=1/heurj90.txt
encoding rcpsp/j90.sm/j908_9.sm nv: 2540154 nc: 5189589 enctime: 40.55
encoding rcpsp/j90.sm/j908_9.sm nv: 346172 nc: 704073 enctime: 3.46
c File: j908_9.smnaivebi1.wcnf
c optimal
c final solution cost: 49
c CPU time: 8.031022
s OPTIMUM FOUND

c File: j908_9.smbi1.wcnf
c optimal
c final solution cost: 49
c CPU time: 0.969400
s OPTIMUM FOUND


rcpsp/heur_output_bi_constraints/Log=1/heurj90.txt
encoding rcpsp/j90.sm/j909_10.sm nv: 1833304 nc: 3804983 enctime: 29.24
encoding rcpsp/j90.sm/j909_10.sm nv: 536844 nc: 1111953 enctime: 7.20
c File: j909_10.smnaivebi1.wcnf
c timeout
c final solution cost: 129
c CPU time: 63.984073
s UNKNOWN

c File: j909_10.smbi1.wcnf
c timeout
c final solution cost: 113
c CPU time: 60.902820
s UNKNOWN


rcpsp/heur_output_bi_constraints/Log=1/heurj90.txt
encoding rcpsp/j90.sm/j909_1.sm nv: 1756800 nc: 3632533 enctime: 27.34
encoding rcpsp/j90.sm/j909_1.sm nv: 472140 nc: 974059 enctime: 6.43
c File: j909_1.smnaivebi1.wcnf
c timeout
c final solution cost: 97
c CPU time: 63.683429
s UNKNOWN

c File: j909_1.smbi1.wcnf
c timeout
c final solution cost: 99
c CPU time: 60.743447
s UNKNOWN


rcpsp/heur_output_bi_constraints/Log=1/heurj90.txt
encoding rcpsp/j90.sm/j909_2.sm nv: 1837668 nc: 3833289 enctime: 29.70
encoding rcpsp/j90.sm/j909_2.sm nv: 543585 nc: 1131471 enctime: 7.21
c File: j909_2.smnaivebi1.wcnf
c timeout
c final solution cost: 348
c CPU time: 64.142383
s UNKNOWN

c File: j909_2.smbi1.wcnf
c timeout
c final solution cost: 128
c CPU time: 60.936611
s UNKNOWN


rcpsp/heur_output_bi_constraints/Log=1/heurj90.txt
encoding rcpsp/j90.sm/j909_3.sm nv: 1725977 nc: 3568200 enctime: 26.75
encoding rcpsp/j90.sm/j909_3.sm nv: 474370 nc: 978550 enctime: 6.36
c File: j909_3.smnaivebi1.wcnf
c timeout
c final solution cost: 103
c CPU time: 63.619867
s UNKNOWN

c File: j909_3.smbi1.wcnf
c timeout
c final solution cost: 103
c CPU time: 60.759104
s UNKNOWN


rcpsp/heur_output_bi_constraints/Log=1/heurj90.txt
encoding rcpsp/j90.sm/j909_4.sm nv: 1746944 nc: 3643685 enctime: 28.34
encoding rcpsp/j90.sm/j909_4.sm nv: 539096 nc: 1122143 enctime: 7.24
c File: j909_4.smnaivebi1.wcnf
c timeout
c final solution cost: 117
c CPU time: 63.899934
s UNKNOWN

c File: j909_4.smbi1.wcnf
c timeout
c final solution cost: 120
c CPU time: 60.935853
s UNKNOWN


rcpsp/heur_output_bi_constraints/Log=1/heurj90.txt
encoding rcpsp/j90.sm/j909_5.sm nv: 1551396 nc: 3254838 enctime: 26.03
encoding rcpsp/j90.sm/j909_5.sm nv: 540408 nc: 1131630 enctime: 7.27
c File: j909_5.smnaivebi1.wcnf
c timeout
c final solution cost: 138
c CPU time: 63.611194
s UNKNOWN

c File: j909_5.smbi1.wcnf
c timeout
c final solution cost: 134
c CPU time: 60.964502
s UNKNOWN


rcpsp/heur_output_bi_constraints/Log=1/heurj90.txt
encoding rcpsp/j90.sm/j909_6.sm nv: 1768348 nc: 3682277 enctime: 28.22
encoding rcpsp/j90.sm/j909_6.sm nv: 536074 nc: 1114007 enctime: 7.19
c File: j909_6.smnaivebi1.wcnf
c timeout
c final solution cost: 114
c CPU time: 63.889983
s UNKNOWN

c File: j909_6.smbi1.wcnf
c timeout
c final solution cost: 119
c CPU time: 60.902757
s UNKNOWN


rcpsp/heur_output_bi_constraints/Log=1/heurj90.txt
encoding rcpsp/j90.sm/j909_7.sm nv: 1748428 nc: 3637491 enctime: 27.77
encoding rcpsp/j90.sm/j909_7.sm nv: 486640 nc: 1010097 enctime: 6.51
c File: j909_7.smnaivebi1.wcnf
c timeout
c final solution cost: 112
c CPU time: 63.844943
s UNKNOWN

c File: j909_7.smbi1.wcnf
c timeout
c final solution cost: 111
c CPU time: 60.808963
s UNKNOWN


rcpsp/heur_output_bi_constraints/Log=1/heurj90.txt
encoding rcpsp/j90.sm/j909_8.sm nv: 1714330 nc: 3571085 enctime: 27.70
encoding rcpsp/j90.sm/j909_8.sm nv: 563475 nc: 1171645 enctime: 7.47
c File: j909_8.smnaivebi1.wcnf
c timeout
c final solution cost: 116
c CPU time: 63.766272
s UNKNOWN

c File: j909_8.smbi1.wcnf
c timeout
c final solution cost: 119
c CPU time: 60.984894
s UNKNOWN


rcpsp/heur_output_bi_constraints/Log=1/heurj90.txt
encoding rcpsp/j90.sm/j909_9.sm nv: 1625272 nc: 3376275 enctime: 26.66
encoding rcpsp/j90.sm/j909_9.sm nv: 493626 nc: 1023341 enctime: 5.91
c File: j909_9.smnaivebi1.wcnf
c timeout
c final solution cost: 115
c CPU time: 63.619088
s UNKNOWN

c File: j909_9.smbi1.wcnf
c timeout
c final solution cost: 117
c CPU time: 60.821408
s UNKNOWN


